sing20150429.00
TTAA  79001 48698
99008 26607 00501 00085 26616 04004 92773 23850 06505
85509 19435 28505 70157 11047 27012 50588 06317 05006
40760 14741 07010 30971 30356 12515 25098 41531 11015
20245 53524 10529 15424 68919 09037
88999
77999=
=
=
